1615166
0,11,41,31,55,39,4,28,24,29,40,63,66,37,6,42,45,33,54,25,65,10,5,59,22,48,18,53,12,64,19,3,47,1,62,15,58,35,7,14,57,8,16,26,44,67,34,50,38,61,36,52,49,27,43,9,17,56,32,51,13,21,30,20,2,60,23,46,0